instances/p1/p1_2_20-1.txt
{
	"num_strings": 2,
	"alphabet": "ACGT",
	"strings": [
		"CGACAACAAAACCAACACAA",
		"GCAGCCACAAAAAACAGCAC"
	],
	"str_length":[20,20]
}